c generated by sgen
p cnf 89 188
-2 -3 -4 0
-1 -3 -4 0
-1 -2 -4 0
-1 -2 -3 0
-6 -7 -8 0
-5 -7 -8 0
-5 -6 -8 0
-5 -6 -7 0
-10 -11 -12 0
-9 -11 -12 0
-9 -10 -12 0
-9 -10 -11 0
-14 -15 -16 0
-13 -15 -16 0
-13 -14 -16 0
-13 -14 -15 0
-18 -19 -20 0
-17 -19 -20 0
-17 -18 -20 0
-17 -18 -19 0
-22 -23 -24 0
-21 -23 -24 0
-21 -22 -24 0
-21 -22 -23 0
-26 -27 -28 0
-25 -27 -28 0
-25 -26 -28 0
-25 -26 -27 0
-30 -31 -32 0
-29 -31 -32 0
-29 -30 -32 0
-29 -30 -31 0
-34 -35 -36 0
-33 -35 -36 0
-33 -34 -36 0
-33 -34 -35 0
-38 -39 -40 0
-37 -39 -40 0
-37 -38 -40 0
-37 -38 -39 0
-42 -43 -44 0
-41 -43 -44 0
-41 -42 -44 0
-41 -42 -43 0
-46 -47 -48 0
-45 -47 -48 0
-45 -46 -48 0
-45 -46 -47 0
-50 -51 -52 0
-49 -51 -52 0
-49 -50 -52 0
-49 -50 -51 0
-54 -55 -56 0
-53 -55 -56 0
-53 -54 -56 0
-53 -54 -55 0
-58 -59 -60 0
-57 -59 -60 0
-57 -58 -60 0
-57 -58 -59 0
-62 -63 -64 0
-61 -63 -64 0
-61 -62 -64 0
-61 -62 -63 0
-66 -67 -68 0
-65 -67 -68 0
-65 -66 -68 0
-65 -66 -67 0
-70 -71 -72 0
-69 -71 -72 0
-69 -70 -72 0
-69 -70 -71 0
-74 -75 -76 0
-73 -75 -76 0
-73 -74 -76 0
-73 -74 -75 0
-78 -79 -80 0
-77 -79 -80 0
-77 -78 -80 0
-77 -78 -79 0
-82 -83 -84 0
-81 -83 -84 0
-81 -82 -84 0
-81 -82 -83 0
-85 -86 -87 0
-85 -86 -88 0
-85 -86 -89 0
-85 -87 -88 0
-85 -87 -89 0
-85 -88 -89 0
-86 -87 -88 0
-86 -87 -89 0
-86 -88 -89 0
-87 -88 -89 0
76 8 83 0
10 8 83 0
10 76 83 0
10 76 8 0
69 42 58 0
61 42 58 0
61 69 58 0
61 69 42 0
79 36 74 0
41 36 74 0
41 79 74 0
41 79 36 0
19 32 49 0
80 32 49 0
80 19 49 0
80 19 32 0
14 57 11 0
27 57 11 0
27 14 11 0
27 14 57 0
31 39 35 0
15 39 35 0
15 31 35 0
15 31 39 0
7 28 23 0
53 28 23 0
53 7 23 0
53 7 28 0
54 77 67 0
82 77 67 0
82 54 67 0
82 54 77 0
55 43 88 0
13 43 88 0
13 55 88 0
13 55 43 0
52 89 63 0
75 89 63 0
75 52 63 0
75 52 89 0
48 29 87 0
73 29 87 0
73 48 87 0
73 48 29 0
86 72 9 0
37 72 9 0
37 86 9 0
37 86 72 0
45 68 12 0
62 68 12 0
62 45 12 0
62 45 68 0
70 30 22 0
81 30 22 0
81 70 22 0
81 70 30 0
26 71 50 0
65 71 50 0
65 26 50 0
65 26 71 0
40 3 78 0
21 3 78 0
21 40 78 0
21 40 3 0
85 20 1 0
33 20 1 0
33 85 1 0
33 85 20 0
47 84 4 0
25 84 4 0
25 47 4 0
25 47 84 0
64 16 18 0
24 16 18 0
24 64 18 0
24 64 16 0
59 51 34 0
6 51 34 0
6 59 34 0
6 59 51 0
5 2 66 0
44 2 66 0
44 5 66 0
44 5 2 0
38 60 56 0
38 60 17 0
38 60 46 0
38 56 17 0
38 56 46 0
38 17 46 0
60 56 17 0
60 56 46 0
60 17 46 0
56 17 46 0
